49
750
513	1
506	1
495	1
493	1
489	1
473	1
471	1
455	1
445	1
442	1
415	1
406	1
396	1
393	1
391	1
376	1
365	2
360	1
358	1
357	1
354	1
353	1
341	1
339	1
335	1
332	1
315	1
311	1
305	1
300	1
296	1
294	1
285	1
281	1
261	1
258	1
247	1
216	1
212	1
203	1
194	1
189	1
186	1
181	1
177	1
174	1
173	1
167	1
161	1
